<?xml version = "1.0" encoding="UTF-8" standalone="yes"?>
<CPLEXSolution version="1.2">
 <header
   problemName="mknap6_cut_n1"
   objectiveValue="11385.087223587234"
   solutionTypeValue="1"
   solutionTypeString="basic"
   solutionStatusValue="1"
   solutionStatusString="optimal"
   solutionMethodString="dual"
   primalFeasible="1"
   dualFeasible="1"
   simplexIterations="6"
   writeLevel="1"/>
 <quality
   epRHS="9.9999999999999995e-07"
   epOpt="9.9999999999999995e-07"
   maxPrimalInfeas="0"
   maxDualInfeas="0"
   maxPrimalResidual="0"
   maxDualResidual="5.6843418860808015e-14"
   maxX="1"
   maxPi="3739.8955773955681"
   maxSlack="247.41277641277594"
   maxRedCost="3630.8538083538124"
   kappa="3.7811444256756666"/>
 <linearConstraints>
  <constraint name="c0" index="0" status="BS" slack="147.56265356265328" dual="-0"/>
  <constraint name="c1" index="1" status="BS" slack="155" dual="-0"/>
  <constraint name="c2" index="2" status="BS" slack="162.69410319410258" dual="-0"/>
  <constraint name="c3" index="3" status="BS" slack="247.41277641277594" dual="-0"/>
  <constraint name="c4" index="4" status="BS" slack="177.98771498771461" dual="-0"/>
  <constraint name="cut_1" index="5" status="LL" slack="0" dual="3739.8955773955681"/>
 </linearConstraints>
 <variables>
  <variable name="x0" index="0" status="LL" value="0" reducedCost="-350.5651105651059"/>
  <variable name="x1" index="1" status="UL" value="1" reducedCost="1125"/>
  <variable name="x2" index="2" status="LL" value="0" reducedCost="-1485.104422604418"/>
  <variable name="x3" index="3" status="UL" value="1" reducedCost="325.00614250614365"/>
  <variable name="x4" index="4" status="LL" value="0" reducedCost="-1355.8660933660763"/>
  <variable name="x5" index="5" status="LL" value="0" reducedCost="-3253.5515970515871"/>
  <variable name="x6" index="6" status="LL" value="0" reducedCost="-2818.762899262892"/>
  <variable name="x7" index="7" status="LL" value="0" reducedCost="-174.79484029483854"/>
  <variable name="x8" index="8" status="LL" value="0" reducedCost="-1938.0737100737053"/>
  <variable name="x9" index="9" status="LL" value="0" reducedCost="-3097.3488943488865"/>
  <variable name="x10" index="10" status="LL" value="0" reducedCost="-1147.7481572481515"/>
  <variable name="x11" index="11" status="LL" value="0" reducedCost="-1947.2739557739505"/>
  <variable name="x12" index="12" status="LL" value="0" reducedCost="-3227.4275184275102"/>
  <variable name="x13" index="13" status="LL" value="0" reducedCost="-629.20761670761499"/>
  <variable name="x14" index="14" status="BS" value="0.14373464373467051" reducedCost="0"/>
  <variable name="x15" index="15" status="UL" value="1" reducedCost="3630.8538083538124"/>
  <variable name="x16" index="16" status="LL" value="0" reducedCost="-1853.1031941031883"/>
  <variable name="x17" index="17" status="LL" value="0" reducedCost="-1597.5307125307079"/>
  <variable name="x18" index="18" status="LL" value="0" reducedCost="-2240.3587223587165"/>
  <variable name="x19" index="19" status="LL" value="0" reducedCost="-3606.163390663382"/>
  <variable name="x20" index="20" status="UL" value="1" reducedCost="631"/>
  <variable name="x21" index="21" status="LL" value="0" reducedCost="-3458.049140049131"/>
  <variable name="x22" index="22" status="LL" value="0" reducedCost="-1493.5442260442196"/>
  <variable name="x23" index="23" status="LL" value="0" reducedCost="-955.0933660933631"/>
  <variable name="x24" index="24" status="UL" value="1" reducedCost="42"/>
  <variable name="x25" index="25" status="LL" value="0" reducedCost="-2154.0945945945887"/>
  <variable name="x26" index="26" status="LL" value="0" reducedCost="-1590.4668304668262"/>
  <variable name="x27" index="27" status="LL" value="0" reducedCost="-3572.2248157248068"/>
  <variable name="x28" index="28" status="LL" value="0" reducedCost="-1577.6732186732147"/>
  <variable name="x29" index="29" status="LL" value="0" reducedCost="-1235.9471744471714"/>
  <variable name="x30" index="30" status="LL" value="0" reducedCost="-1101.737100737098"/>
  <variable name="x31" index="31" status="LL" value="0" reducedCost="-1254.416461916458"/>
  <variable name="x32" index="32" status="LL" value="0" reducedCost="-2437.6240786240719"/>
  <variable name="x33" index="33" status="LL" value="0" reducedCost="-3512.8280098280011"/>
  <variable name="x34" index="34" status="UL" value="1" reducedCost="2.603194103194582"/>
  <variable name="x35" index="35" status="UL" value="1" reducedCost="49"/>
  <variable name="x36" index="36" status="UL" value="1" reducedCost="82.416461916461486"/>
  <variable name="x37" index="37" status="LL" value="0" reducedCost="-1124.0184275184242"/>
  <variable name="x38" index="38" status="LL" value="0" reducedCost="-2483.4950859950795"/>
  <variable name="x39" index="39" status="UL" value="1" reducedCost="223.19656019656247"/>
  <variable name="x40" index="40" status="LL" value="0" reducedCost="-828.28132678131988"/>
  <variable name="x41" index="41" status="LL" value="0" reducedCost="-2416.0380835380765"/>
  <variable name="x42" index="42" status="UL" value="1" reducedCost="2108.1879606879634"/>
  <variable name="x43" index="43" status="LL" value="0" reducedCost="-3068.0466830466739"/>
  <variable name="x44" index="44" status="LL" value="0" reducedCost="-53.732186732186335"/>
  <variable name="x45" index="45" status="LL" value="0" reducedCost="-2116.1621621621566"/>
  <variable name="x46" index="46" status="UL" value="1" reducedCost="361.03194103194335"/>
  <variable name="x47" index="47" status="LL" value="0" reducedCost="-2345.5442260442187"/>
  <variable name="x48" index="48" status="LL" value="0" reducedCost="-743.47911547911337"/>
  <variable name="x49" index="49" status="LL" value="0" reducedCost="-235.40049140049064"/>
 </variables>
 <objectiveValues>
  <objective index="0" name="" value="11385.087223587234"/>
 </objectiveValues>
</CPLEXSolution>
